VACCINE = Vaccine(1..2);
m = 24;
age = [ADULT, SENIOR, YOUTH, ANCIENT, SENIOR, AGED, CHILD, BABY, ADULT, YOUTH, YOUTH, BABY, SENIOR, BABY, YOUTH, YOUTH, SENIOR, BABY, BABY, SENIOR, ANCIENT, ADULT, ANCIENT, BABY];
gender = [FEMALE, MALE, OTHER, OTHER, FEMALE, FEMALE, OTHER, MALE, FEMALE, FEMALE, FEMALE, FEMALE, OTHER, FEMALE, FEMALE, OTHER, OTHER, FEMALE, MALE, OTHER, OTHER, FEMALE, FEMALE, MALE];
health = [POOR, POOR, GOOD, GOOD, POOR, POOR, POOR, POOR, GOOD, COMPROMISED, POOR, COMPROMISED, GOOD, POOR, COMPROMISED, COMPROMISED, GOOD, POOR, COMPROMISED, GOOD, COMPROMISED, POOR, GOOD, GOOD];
exposure = [LOW, AVERAGE, AVERAGE, EXTREME, HIGH, LOW, HIGH, AVERAGE, EXTREME, HIGH, EXTREME, AVERAGE, EXTREME, AVERAGE, LOW, EXTREME, HIGH, EXTREME, EXTREME, HIGH, EXTREME, LOW, HIGH, LOW];
size = [8, 4, 5, 5, 8, 8, 6, 7, 9, 4, 4, 7, 7, 7, 7, 4, 9, 9, 5, 5, 8, 8, 5, 6];
minsize = 4;
age_group_min = [0, 0, 0, 0, 0, 0, 0];
age_group_max = [12, 15, 20, 13, 13, 12, 24];
max_people_diff = 88;
max_share_vaccines = 2;
health_information = {10, 13, 19};
exposure_information = {11, 15, 18, 19};